c 
c U(n,d) graph
c graph gen seed     : 791
c number of vertices : 50
c max number of edges: 1225
c Euclidean distance : 0.200000
c data structure     : sparse
c
c           Graph Stats
c number of vertices  : 50
c nonisolated vertices: 49
c number of edges     : 122
c edge density        : 0.099592
c max degree          : 11
c avg degree          : 4.88
c min degree          : 0
p col 50 122
e 1 36
e 1 27
e 1 3
e 2 35
e 2 32
e 2 19
e 3 36
e 3 27
e 4 48
e 4 39
e 4 37
e 4 23
e 4 21
e 4 17
e 4 5
e 5 48
e 5 39
e 5 37
e 5 24
e 5 23
e 5 21
e 5 17
e 6 49
e 6 33
e 6 29
e 6 16
e 8 43
e 8 25
e 9 47
e 9 46
e 9 44
e 9 40
e 9 30
e 9 18
e 10 45
e 10 22
e 10 20
e 11 12
e 13 48
e 13 39
e 13 37
e 13 32
e 13 31
e 13 26
e 13 24
e 13 23
e 14 22
e 14 21
e 15 41
e 15 35
e 16 49
e 16 33
e 16 29
e 16 19
e 17 48
e 17 44
e 17 40
e 17 39
e 17 23
e 18 47
e 18 46
e 18 40
e 19 49
e 19 35
e 19 33
e 19 32
e 19 31
e 19 29
e 19 26
e 20 45
e 20 22
e 21 34
e 22 28
e 23 48
e 23 39
e 23 37
e 23 32
e 23 31
e 23 26
e 23 24
e 24 48
e 24 39
e 24 37
e 24 32
e 24 31
e 25 42
e 25 38
e 26 37
e 26 35
e 26 32
e 26 31
e 27 36
e 27 30
e 29 49
e 29 33
e 30 47
e 30 44
e 30 40
e 30 36
e 31 48
e 31 39
e 31 37
e 31 33
e 31 32
e 32 37
e 32 35
e 32 33
e 33 49
e 34 50
e 34 45
e 37 48
e 37 39
e 38 50
e 38 45
e 39 48
e 40 47
e 40 46
e 40 44
e 42 50
e 44 47
e 45 50
e 46 47
